200
1000
165
164
164
163
163
161
161
160
160
159
159
159
158
158
156
156
155
154
153
153
152
152
152
152
152
151
151
150
150
150
149
149
149
148
148
147
147
146
146
145
145
143
143
143
142
142
141
140
140
139
139
138
138
138
137
137
137
136
135
134
134
133
133
132
131
130
129
128
127
127
127
127
127
126
126
126
125
123
122
122
120
120
120
120
120
120
119
119
116
116
116
116
115
114
113
112
112
112
110
110
109
108
108
107
106
106
105
104
104
103
103
103
102
101
101
101
101
100
100
100
99
99
98
98
98
97
94
90
89
89
89
88
88
87
87
85
84
84
83
83
83
82
82
82
82
82
81
81
80
79
79
79
77
76
76
76
74
74
73
73
73
72
72
72
71
70
70
68
68
67
67
67
66
66
66
65
65
65
63
63
63
62
62
62
61
61
61
61
60
60
60
58
58
58
58
58
57
57
57
57
